************************************************************************
file with basedata            : cm255_.bas
initial value random generator: 536938950
************************************************************************
projects                      :  1
jobs (incl. supersource/sink ):  18
horizon                       :  123
RESOURCES
  - renewable                 :  2   R
  - nonrenewable              :  2   N
  - doubly constrained        :  0   D
************************************************************************
PROJECT INFORMATION:
pronr.  #jobs rel.date duedate tardcost  MPM-Time
    1     16      0       22        5       22
************************************************************************
PRECEDENCE RELATIONS:
jobnr.    #modes  #successors   successors
   1        1          3           2   3   4
   2        2          3           5   6  13
   3        2          3           5  13  14
   4        2          3           9  11  15
   5        2          2           8  15
   6        2          3           7   8   9
   7        2          3          11  15  16
   8        2          2          10  16
   9        2          1          14
  10        2          1          12
  11        2          2          12  14
  12        2          1          17
  13        2          2          16  17
  14        2          1          17
  15        2          1          18
  16        2          1          18
  17        2          1          18
  18        1          0        
************************************************************************
REQUESTS/DURATIONS:
jobnr. mode duration  R 1  R 2  N 1  N 2
------------------------------------------------------------------------
  1      1     0       0    0    0    0
  2      1     3       8    6    6    7
         2     9       7    4    3    5
  3      1     5       5    4    8    8
         2     9       5    1    4    7
  4      1     2       8    5    4    8
         2     8       5    5    3    8
  5      1     1      10    6    8    6
         2     6       8    6    5    6
  6      1     8       9    9    5    8
         2     9       6    1    4    7
  7      1     2       3    5    5    4
         2     6       2    3    5    3
  8      1     6       9    8    6    4
         2     9       7    5    2    4
  9      1     6       9    6   10    9
         2     9       5    5    9    9
 10      1     2       8    8    8    8
         2     9       6    7    2    7
 11      1     3       9    8    5    3
         2     8       8    5    4    3
 12      1     1       6    8    5    4
         2     2       4    6    3    4
 13      1     1       4    2    8    3
         2     9       2    1    6    2
 14      1     1       8    5    5    5
         2     5       6    4    4    2
 15      1     4       9    6    8    8
         2     7       5    2    7    7
 16      1     3       8   10    5    5
         2    10       7   10    4    5
 17      1     2       2    3    9    3
         2     8       1    3    8    1
 18      1     0       0    0    0    0
************************************************************************
RESOURCEAVAILABILITIES:
  R 1  R 2  N 1  N 2
   29   24   97   90
************************************************************************
